JulietBench/Juliet_Based_Patch_Bench/linux/CWE-189-Numeric-Errors/CVE_2010_2538_2ebc3464781ad24474abcbd2274e6254689853b5/Resultbtrfs_ioctl_clone_Snippet_patch2EQ.smt2
; benchmark generated from python API
(set-info :status unknown)
(declare-fun R () (_ BitVec 32))
(declare-fun rdx () (_ BitVec 64))
(declare-fun rsi () (_ BitVec 64))
(declare-fun rdi () (_ BitVec 64))
(assert
 (let (($x3451 (= (_ bv1 32) R)))
 (let (($x3444 (= (_ bv0 64) rdx)))
 (let (($x3455 (and (distinct (_ bv0 64) rsi) true)))
 (let (($x3450 (and $x3455 $x3444 $x3451)))
 (let ((?x3433 ((_ extract 31 0) rdx)))
 (let (($x3403 (= R ?x3433)))
 (let (($x3453 (and (distinct (_ bv0 64) rdx) true)))
 (let (($x3449 (and $x3455 $x3453 $x3403)))
 (let (($x2622 (= (_ bv0 64) rsi)))
 (let (($x3454 (and $x2622 $x3444 $x3403)))
 (let (($x3445 (and $x2622 $x3453 $x3403)))
 (let (($x3409 (or $x3445 $x3454 $x3449 $x3450)))
 (let (($x3456 (= (_ bv4294967274 32) R)))
 (let (($x36 (bvuge rdi rdx)))
 (let (($x3389 (and $x36 $x3456)))
 (let (($x15 (bvult rdi rdx)))
 (let ((?x51 (bvadd rsi rdi)))
 (let (($x52 (bvult rdx ?x51)))
 (let (($x3398 (and $x52 $x15 $x3456)))
 (let ((?x3401 ((_ extract 31 0) rsi)))
 (let (($x3431 (= R ?x3401)))
 (let (($x1263 (bvuge rdx ?x51)))
 (let (($x3397 (and $x3455 $x1263 $x15 $x3431)))
 (let ((?x3434 (bvmul (_ bv18446744073709551615 64) rdi)))
 (let ((?x3457 (bvadd rdx ?x3434)))
 (let ((?x3415 ((_ extract 31 0) ?x3457)))
 (let (($x3447 (= R ?x3415)))
 (let (($x3405 (and $x2622 $x1263 $x15 $x3447)))
 (let (($x3448 (or $x3405 $x3397 $x3398 $x3389)))
 (and $x3448 $x3409)))))))))))))))))))))))))))))))
(check-sat)
